lbl,CUST NO.,READY TIME,XCOORD.,YCOORD.,DEMAND,DUE DATE,SERVICE TIME
19,164,49,97,29,30,154,90
19,66,92,97,28,20,189,90
19,12,144,95,35,10,305,90
19,147,181,96,26,10,284,90
19,160,275,99,26,40,375,90
19,47,360,99,28,30,475,90
19,91,456,98,31,20,565,90
19,70,542,103,34,30,671,90
